experiments/benchmarks/random/8_3_2.in
19 10
1 0 0 0 0 -6 0 0 2 3
1 0 10 0 0 0 0 0 0 -5
1 7 0 0 0 0 0 0 0 -2
1 1 0 0 0 0 0 0 0 8
1 0 1 0 0 0 0 0 0 8
1 0 0 1 0 0 0 0 0 8
1 0 0 0 1 0 0 0 0 8
1 0 0 0 0 1 0 0 0 8
1 0 0 0 0 0 1 0 0 8
1 0 0 0 0 0 0 1 0 8
1 0 0 0 0 0 0 0 1 8
1 -1 0 0 0 0 0 0 0 7
1 0 -1 0 0 0 0 0 0 7
1 0 0 -1 0 0 0 0 0 7
1 0 0 0 -1 0 0 0 0 7
1 0 0 0 0 -1 0 0 0 7
1 0 0 0 0 0 -1 0 0 7
1 0 0 0 0 0 0 -1 0 7
1 0 0 0 0 0 0 0 -1 7
